(declare-fun bvlambda_7_ () (_ BitVec 1))
(declare-fun bvlambda_8_ () (_ BitVec 3))
(declare-fun bvlambda_9_ () (_ BitVec 2))
(declare-fun bvlambda_10_ () (_ BitVec 1))
(declare-fun bvlambda_11_ () (_ BitVec 3))
(declare-fun bvlambda_15_ () (_ BitVec 1))
(declare-fun bvlambda_16_ () (_ BitVec 2))
(declare-fun a91 () (Array (_ BitVec 1) (_ BitVec 4)))
(assert
(let (($e1 (_ bv0 1)))
(let (($e3 (_ bv2 4)))
(let (($e16 (_ bv0 7)))
(let (($e32 (_ bv0 4)))
(let (($e133 (concat $e16 bvlambda_15_)))
(let (($e134 (concat $e133 bvlambda_16_)))
(let (($e135 (concat bvlambda_7_ bvlambda_8_)))
(let (($e136 (concat $e135 bvlambda_9_)))
(let (($e137 (concat $e136 bvlambda_10_)))
(let (($e138 (concat $e137 bvlambda_11_)))
(let (($e139      (bvult $e138 $e134)         ))
(let (($e257 (store a91 (bvnot $e1) $e3)))
(let (($e258 (store $e257 $e139 $e32)))
(let (($e259 (select $e258 (bvnot $e1))))
             (   extract      $e259)
                                                                                                                                                                                                                                                                                                                                                                                                                                                                                                                                                                                                                                                                                                                                                                                                                                                                                                             )))                                                                                                                     )))))))                                                                          )               )            ) ))
